==> SBEFFORT             = 0.25
==> MAXTIME              = 3600
==> OUTPUTLOG            = 1
FICO Xpress v8.5.9, solve started 23:47:54, Jun 8, 2019
Maximizing MILP Seating model
Original problem has:
       230 rows          300 cols         7440 elements       300 globals
Presolved problem has:
       103 rows          204 cols         2431 elements       198 globals
LP relaxation tightened
Will try to keep branch and bound tree memory usage below 7.2GB
 *** Heuristic solution found:    22.000000      Time: 0 ***
Starting concurrent solve with dual

 Concurrent-Solve,   0s
            Dual        
    objective   dual inf
 D  102.00000   .0000000
------- optimal --------
Concurrent statistics:
      Dual: 34 simplex iterations, 0.00s
Optimal solution found
 
   Its         Obj Value      S   Ninf  Nneg   Sum Dual Inf  Time
    34        102.000000      D      0     0        .000000     0
Dual solved problem
  34 simplex iterations in 0s

Final objective                         : 1.020000000000000e+02
  Max primal violation      (abs / rel) : 1.110e-16 / 9.869e-17
  Max dual violation        (abs / rel) :       0.0 /       0.0
  Max complementarity viol. (abs / rel) :       0.0 /       0.0
All values within tolerances

Starting root cutting & heuristics
 
 Its Type    BestSoln    BestBound   Sols    Add    Del     Gap     GInf   Time
   1  K     22.000000   102.000000      1     99      0   78.43%      29      0
   2  K     22.000000   102.000000      1    111     81   78.43%      43      0
   3  K     22.000000   102.000000      1     92    101   78.43%      48      0
b           28.000000   102.000000      2                 72.55%       0      0
   4  K     28.000000   102.000000      2     87     94   72.55%      35      0
   5  K     28.000000   102.000000      2    100     83   72.55%      49      0
   6  K     28.000000   102.000000      2     93     97   72.55%      47      0
   7  K     28.000000   102.000000      2     89     88   72.55%      58      0
b           35.000000   102.000000      3                 65.69%       0      0
   8  K     35.000000   102.000000      3     81     91   65.69%      37      0
   9  K     35.000000   102.000000      3     95     87   65.69%      48      0
  10  K     35.000000   102.000000      3     97     89   65.69%      58      0
  11  K     35.000000   102.000000      3     83     86   65.69%      67      0
  12  K     35.000000   102.000000      3     93     82   65.69%      72      0
  13  K     35.000000   102.000000      3     87     85   65.69%      76      0
  14  K     35.000000   102.000000      3      2     83   65.69%      39      0
  15  K     35.000000   102.000000      3      1      7   65.69%      39      0
  16  K     35.000000   102.000000      3      1     13   65.69%      39      0
  17  K     35.000000   102.000000      3     96      8   65.69%      58      0
  18  K     35.000000   102.000000      3      2     91   65.69%      39      0
b           47.000000   102.000000      4                 53.92%       0      0
  19  K     47.000000   102.000000      4     93     14   53.92%      52      0
  20  K     47.000000   102.000000      4     99    150   53.92%      59      0
  21  G     47.000000   102.000000      4     39     31   53.92%      41      0
  22  G     47.000000   102.000000      4     70    110   53.92%      55      0
Heuristic search started
Heuristic search stopped
 
Cuts in the matrix         : 39
Cut elements in the matrix : 1106
 
Starting tree search.
Deterministic mode with up to 4 running threads and up to 8 tasks.
 
    Node     BestSoln    BestBound   Sols Active  Depth     Gap     GInf   Time
       1    47.000000   102.000000      4      2      1   53.92%      45      0
       2    47.000000   102.000000      4      2      2   53.92%      57      0
       3    47.000000   102.000000      4      2      2   53.92%      34      0
       4    47.000000   102.000000      4      2      3   53.92%      47      0
       5    47.000000   102.000000      4      2      3   53.92%      35      0
       6    47.000000   102.000000      4      2      4   53.92%      43      0
       7    47.000000   102.000000      4      5      4   53.92%      43      0
       8    47.000000   102.000000      4      8      3   53.92%      47      0
       9    47.000000   102.000000      4      8      3   53.92%      42      0
      10    47.000000   102.000000      4      8      4   53.92%      51      0
      28    47.000000   102.000000      4     17     14   53.92%      53      0
      41    47.000000   102.000000      4     17     16   53.92%      49      0
      57    47.000000   102.000000      4     17     22   53.92%      29      0
      75    47.000000   102.000000      4     31     20   53.92%      16      0
      98    47.000000   102.000000      4     50     25   53.92%      20      0
     114    47.000000   102.000000      4     50     20   53.92%      34      0
     218    47.000000   102.000000      4     50     18   53.92%      22      1
     326    47.000000   102.000000      4     65     14   53.92%      24      1
     435    47.000000   102.000000      4     87     16   53.92%      31      1
B&B tree size: 1.9MB total
 
    Node     BestSoln    BestBound   Sols Active  Depth     Gap     GInf   Time
     547    47.000000   102.000000      4     87     20   53.92%      15      1
     654    47.000000   102.000000      4    115     17   53.92%      37      1
     761    47.000000   102.000000      4    115     31   53.92%       6      1
     866    47.000000   102.000000      4    196     16   53.92%      41      1
     972    47.000000   102.000000      4    243     16   53.92%      35      1
    1082    47.000000   102.000000      4    332     20   53.92%      37      1
    1187    47.000000   102.000000      4    332     26   53.92%      36      1
    1308    47.000000   102.000000      4    412     24   53.92%      18      1
    1425    47.000000   102.000000      4    412     18   53.92%      21      1
*   1530    48.000000   102.000000      5    412     25   52.94%       0      2
    1545    48.000000   102.000000      5    412     16   52.94%      26      2
    1655    48.000000   102.000000      5    412     29   52.94%      22      2
    1760    48.000000   102.000000      5    412     28   52.94%      14      2
    1860    48.000000   102.000000      5    412     23   52.94%      37      2
    1961    48.000000   102.000000      5    412     15   52.94%      32      2
a   2024    49.000000   102.000000      6    412     28   51.96%       0      2
    2070    49.000000   102.000000      6    412     16   51.96%      44      2
    2173    49.000000   102.000000      6    412     23   51.96%      26      2
    2275    49.000000   102.000000      6    495     23   51.96%      27      2
a   2317    51.000000   102.000000      7    495     27   50.00%       0      2
B&B tree size: 7.1MB total
 
    Node     BestSoln    BestBound   Sols Active  Depth     Gap     GInf   Time
    2389    51.000000   102.000000      7    495     16   50.00%      32      2
    2497    51.000000   102.000000      7    495     31   50.00%      19      2
    2600    51.000000   102.000000      7    495     16   50.00%      20      2
a   2654    53.000000   100.216621      8    566     25   47.11%       0      2
    2703    53.000000   100.216621      8    566     16   47.11%      34      2
    2812    53.000000   100.216621      8    566     12   47.11%      65      2
    2938    53.000000   100.216621      8    651      1   47.11%       1      2
    3053    53.000000   100.216621      8    651     15   47.11%      47      3
    3167    53.000000   100.216621      8    651     29   47.11%      10      3
    3271    53.000000   100.216621      8    769     30   47.11%      15      3
    3385    53.000000   100.216621      8    769     19   47.11%      31      3
    3497    53.000000   100.216621      8    769     23   47.11%      15      3
    3609    53.000000   100.216621      8    925     18   47.11%      35      3
    3710    53.000000   100.216621      8    925     20   47.11%      48      3
    3831    53.000000   100.216621      8    925     20   47.11%      27      3
    3940    53.000000   100.216621      8    925      9   47.11%      66      3
    4061    53.000000   100.216621      8   1042     25   47.11%      27      3
    4168    53.000000   100.216621      8   1042     22   47.11%      15      3
a   4203    54.000000   100.216621      9   1147     32   46.12%       0      3
    4278    54.000000   100.216621      9   1147     19   46.12%      31      3
B&B tree size: 11MB total
 
    Node     BestSoln    BestBound   Sols Active  Depth     Gap     GInf   Time
    4380    54.000000   100.216621      9   1147     18   46.12%      46      3
    4495    54.000000   100.216621      9   1223     23   46.12%      32      4
    4599    54.000000   100.216621      9   1353     15   46.12%      42      4
    4701    54.000000   100.216621      9   1353     13   46.12%      32      4
    4803    54.000000   100.216621      9   1353     16   46.12%      40      4
    4908    54.000000   100.216621      9   1353     15   46.12%      22      4
    5029    54.000000   100.216621      9   1353     22   46.12%      34      4
    5131    54.000000   100.216621      9   1353     20   46.12%      30      4
    5247    54.000000   100.216621      9   1353     16   46.12%      41      4
    5348    54.000000   100.216621      9   1353     29   46.12%       3      4
    5450    54.000000   100.216621      9   1353     23   46.12%      29      4
    5550    54.000000   100.216621      9   1353     15   46.12%      26      4
    5667    54.000000   100.216621      9   1353     21   46.12%      29      4
    5786    54.000000   100.216621      9   1353     24   46.12%      20      5
    5891    54.000000   100.216621      9   1353     25   46.12%      17      5
    6004    54.000000   100.216621      9   1353     22   46.12%      33      5
    6107    54.000000   100.216621      9   1392     16   46.12%      49      5
    6213    54.000000   100.216621      9   1442     16   46.12%      38      5
    6320    54.000000   100.216621      9   1564     21   46.12%      37      5
    6424    54.000000   100.216621      9   1600     16   46.12%      36      5
B&B tree size: 15MB total
 
    Node     BestSoln    BestBound   Sols Active  Depth     Gap     GInf   Time
    6526    54.000000   100.216621      9   1600     16   46.12%      50      5
R   6636    60.000000   100.216621     10   1712     21   40.13%       0      5
    6647    60.000000   100.216621     10   1712     16   40.13%      54      5
    6755    60.000000   100.216621     10   1712     16   40.13%      36      5
    6856    60.000000   100.216621     10   1712     19   40.13%      36      5
    7135    60.000000   100.216621     10   1564      1   40.13%       1      5
    7239    60.000000   100.216621     10   1670     23   40.13%      31      5
    7346    60.000000    96.084323     10   1804      1   37.55%       1      5
    7456    60.000000    96.084323     10   1828     17   37.55%      27      6
    7557    60.000000    96.084323     10   1828     16   37.55%      30      6
    7668    60.000000    96.084323     10   1828     16   37.55%      44      6
    7770    60.000000    96.084323     10   1828     17   37.55%      20      6
    7876    60.000000    96.084323     10   1828     16   37.55%      45      6
    7985    60.000000    96.084323     10   1828     22   37.55%      29      6
    8092    60.000000    96.084323     10   1877     23   37.55%      23      6
    8193    60.000000    96.084323     10   1924     16   37.55%      37      6
    8293    60.000000    96.084323     10   1924     20   37.55%      40      6
    8400    60.000000    96.084323     10   1916     17   37.55%      45      6
    8520    60.000000    96.084323     10   1916     25   37.55%       8      6
    8626    60.000000    90.826133     10   2029     16   33.94%      46      7
B&B tree size: 16MB total
 
    Node     BestSoln    BestBound   Sols Active  Depth     Gap     GInf   Time
    8748    60.000000    90.826133     10   2029     23   33.94%      21      7
    8849    60.000000    90.826133     10   2029     16   33.94%      46      7
    8957    60.000000    90.712371     10   2069     18   33.86%      16      7
    9060    60.000000    89.309435     10   2090     24   32.82%      13      7
    9171    60.000000    89.309435     10   2090     24   32.82%      29      7
    9273    60.000000    89.309435     10   2090     17   32.82%      54      7
    9390    60.000000    89.309435     10   2090     19   32.82%      28      7
    9502    60.000000    89.309435     10   2090     25   32.82%      15      7
    9605    60.000000    89.309435     10   2090     17   32.82%      23      7
    9713    60.000000    89.309435     10   2090     21   32.82%      31      7
    9813    60.000000    89.309435     10   2090     27   32.82%      20      7
    9913    60.000000    89.309435     10   2090     16   32.82%      39      8
   10017    60.000000    89.309435     10   2118     16   32.82%      38      8
   11020    60.000000    88.000000     10   2316     19   31.82%      25      8
   12020    60.000000    85.840000     10   2514     16   30.10%      40      9
   13020    60.000000    85.511826     10   2681     21   29.83%      16     10
   14025    60.000000    83.908740     10   2759     16   28.49%      37     11
   15032    60.000000    82.967823     10   2904     24   27.68%      23     12
   16050    60.000000    82.000000     10   3006     21   26.83%      30     12
   17057    60.000000    82.000000     10   3087     16   26.83%      13     13
B&B tree size: 29MB total
 
    Node     BestSoln    BestBound   Sols Active  Depth     Gap     GInf   Time
   18078    60.000000    80.575813     10   3169     19   25.54%       5     14
   19078    60.000000    80.094588     10   3202     17   25.09%      50     15
   20091    60.000000    79.415995     10   3261     13   24.45%      30     15
   21100    60.000000    79.000000     10   3362     21   24.05%      23     16
   22106    60.000000    79.000000     10   3341     17   24.05%      28     16
   23117    60.000000    78.527778     10   3361     24   23.59%      28     17
   24140    60.000000    77.044865     10   3355     24   22.12%      23     18
   25152    60.000000    76.238847     10   3344     20   21.30%      42     18
   26161    60.000000    76.000000     10   3344     24   21.05%      38     19
   27161    60.000000    75.381007     10   3297     21   20.40%      42     19
   28165    60.000000    75.023369     10   3279     20   20.02%      41     20
   29166    60.000000    75.000000     10   3266     19   20.00%      37     20
   30170    60.000000    74.246667     10   3264     18   19.19%      30     21
   31171    60.000000    74.046678     10   3218     18   18.97%      14     22
   32174    60.000000    74.000000     10   3173     22   18.92%      34     22
   33179    60.000000    73.003577     10   3136     20   17.81%      43     23
   34181    60.000000    73.000000     10   3047     16   17.81%      39     23
   35182    60.000000    73.000000     10   2972     26   17.81%      29     24
   36182    60.000000    72.000000     10   2823     20   16.67%      36     24
   37183    60.000000    71.000000     10   2653     19   15.49%      34     25
B&B tree size: 32MB total
 
    Node     BestSoln    BestBound   Sols Active  Depth     Gap     GInf   Time
   38190    60.000000    71.000000     10   2532     21   15.49%      23     25
   39192    60.000000    69.285788     10   2333     18   13.40%      32     26
   40195    60.000000    68.842105     10   2182     24   12.84%      16     26
   41195    60.000000    68.015789     10   1936     18   11.79%      24     27
   42199    60.000000    67.082652     10   1638     19   10.56%      19     27
   43204    60.000000    67.000000     10   1304     21   10.45%      29     28
   44204    60.000000    65.000000     10    840     16    7.69%      32     28
   45205    60.000000    63.024702     10    354     21    4.80%      34     28
 *** Search completed ***     Time:    29 Nodes:      45787
Number of integer feasible solutions found is 10
Best integer solution found is    60.000000
Best bound is    60.000000
Uncrunching matrix
